LR101
# BEST_KNOWN_VEHICLES 1
# BEST_KNOWN_DISTANCE 66.502815
VEHICLE
NUMBER CAPACITY
1 2
NODES
ID X Y DEMAND READY DUE SERVICE PAIR TYPE
0 0 0 0 0 1000 0 - DEPOT
1 10 0 1 0 1000 0 2 PICKUP
2 20 10 -1 0 1000 0 1 DROPOFF
3 30 10 1 0 1000 0 4 PICKUP
4 20 10 -1 0 1000 0 3 DROPOFF
